unsat
(:cnf-encoding-aux-vars   73
 :eliminated-applications 4
 :eliminated-vars         96
 :max-memory              18.87
 :memory                  18.34
 :nlsat-conflicts         2
 :nlsat-decisions         3
 :nlsat-learned-added     1
 :nlsat-propagations      8
 :num-allocs              16691
 :rlimit-count            56121
 :time                    0.01
 :total-time              0.02)
